research/drat/n2_k3.cnf
p cnf 15 29
-2 1 4 0
-3 4 0
-4 3 2 0
-1 2 0
-5 3 0
-5 4 0
5 0
-6 1 0
-6 2 0
6 0
-7 2 0
-7 4 0
7 0
-14 8 0
-15 9 0
-12 8 0
-13 9 0
-12 -14 9 0
-12 -15 10 0
-13 -14 10 0
-13 -15 11 0
4 14 0
3 14 0
3 4 15 0
2 12 0
1 12 0
1 2 13 0
-9 0
-1 -2 -3 -4 0
