research/drat/n2_k3.drat
3 0
4 0
1 0
2 0
d -7 2 0
d -7 4 0
d 4 14 0
d 3 14 0
d 3 4 15 0
d 2 12 0
d 1 12 0
d 1 2 13 0
-15 0
-13 0
0
d -1 -2 -3 -4 0
